Version identifier: 20.1.0.0 | 2020-11-10 | 9bedb6d68
CPXPARAM_Threads                                 1
CPXPARAM_TimeLimit                               7200
CPXPARAM_MIP_Tolerances_MIPGap                   0
Generic callback                                 0x60
1 of 1 MIP starts provided solutions.
MIP start 'm1' defined initial solution with objective 2198.4980.
Tried aggregator 1 time.
Reduced MIP has 1 rows, 501 columns, and 500 nonzeros.
Reduced MIP has 500 binaries, 0 generals, 0 SOSs, and 0 indicators.
Presolve time = 0.00 sec. (0.15 ticks)
Probing time = 0.00 sec. (0.05 ticks)
Tried aggregator 1 time.
Reduced MIP has 1 rows, 501 columns, and 500 nonzeros.
Reduced MIP has 500 binaries, 0 generals, 0 SOSs, and 0 indicators.
Presolve time = 0.00 sec. (0.15 ticks)
Probing time = 0.00 sec. (0.05 ticks)
MIP emphasis: balance optimality and feasibility.
MIP search method: dynamic search.
Parallel mode: none, using 1 thread.
Root relaxation solution time = 0.00 sec. (0.10 ticks)

        Nodes                                         Cuts/
   Node  Left     Objective  IInf  Best Integer    Best Bound    ItCnt     Gap

*     0+    0                         2198.4980     5432.0000           147.08%
      0     0     2791.9587     2     2198.4980     5432.0000        0  147.08%
      0     0     2595.2610     3     2198.4980 UserPurge2: 1        7   18.05%
      0     0     2541.5098     5     2198.4980 UserPurge2: 1       17   15.60%
      0     0     2517.0577     7     2198.4980 UserPurge2: 1       27   14.49%
      0     0     2492.6948     9     2198.4980 UserPurge2: 1       39   13.38%
      0     0     2458.0402    10     2198.4980 UserPurge2: 1       65   11.81%
      0     0     2429.6949     8     2198.4980 UserPurge1: 1       71   10.52%
      0     0     2419.6010     8     2198.4980 UserPurge2: 1       87   10.06%
      0     0     2375.2100     8     2198.4980 UserPurge2: 1      112    8.04%
      0     0     2355.2138     8     2198.4980 UserPurge2: 1      128    7.13%
      0     0     2345.9284     8     2198.4980 UserPurge2: 1      137    6.71%
      0     0     2344.8075     9     2198.4980 UserPurge2: 1      142    6.65%
      0     0     2332.2493     9     2198.4980 UserPurge2: 1      159    6.08%
      0     0     2322.9502     7     2198.4980 UserPurge2: 1      172    5.66%
      0     0     2320.4879     8     2198.4980 UserPurge2: 1      181    5.55%
      0     0     2317.1743     8     2198.4980 UserPurge2: 1      188    5.40%
      0     0     2312.7416     7     2198.4980 UserPurge2: 1      197    5.20%
      0     0     2309.3386     8     2198.4980 UserPurge2: 1      206    5.04%
      0     0     2301.6627     7     2198.4980 UserPurge2: 1      224    4.69%
      0     0     2299.9360     9     2198.4980 UserPurge2: 1      228    4.61%
      0     0     2295.4121     8     2198.4980 UserPurge2: 1      241    4.41%
      0     0     2293.2366     9     2198.4980 UserPurge2: 1      251    4.31%
      0     0     2289.5437     9     2198.4980 UserPurge2: 1      262    4.14%
      0     0     2287.4080     9     2198.4980 UserPurge2: 1      270    4.04%
      0     0     2286.8978    10     2198.4980 UserPurge2: 1      279    4.02%
      0     0     2286.4080    11     2198.4980 UserPurge2: 1      282    4.00%
      0     0     2286.0069    12     2198.4980 UserPurge2: 1      288    3.98%
      0     0     2284.3546    11     2198.4980 UserPurge2: 1      305    3.91%
      0     0     2283.7859    11     2198.4980 UserPurge2: 1      314    3.88%
      0     0     2279.0254     9     2198.4980 UserPurge2: 1      337    3.66%
      0     0     2277.6463    10     2198.4980 UserPurge2: 1      347    3.60%
*     0+    0                         2199.2887     2277.6463             3.56%
      0     0     2276.4450    10     2199.2887 UserPurge2: 1      358    3.51%
      0     0     2275.0988    11     2199.2887 UserPurge2: 1      369    3.45%
      0     0     2274.6830    12     2199.2887 UserPurge2: 1      372    3.43%
      0     0     2272.9884    13     2199.2887 UserPurge2: 1      388    3.35%
      0     0     2269.4484    11     2199.2887 UserPurge2: 1      407    3.19%
      0     0     2266.9812    11     2199.2887 UserPurge2: 1      425    3.08%
      0     0     2265.8350    11     2199.2887 UserPurge2: 1      434    3.03%
      0     0     2264.9586    11     2199.2887 UserPurge2: 1      441    2.99%
      0     0     2264.4711    11     2199.2887 UserPurge2: 1      451    2.96%
      0     0     2264.1991    12     2199.2887 UserPurge2: 1      458    2.95%
      0     0     2263.5158    11     2199.2887 UserPurge2: 1      468    2.92%
      0     0     2263.4283    12     2199.2887 UserPurge2: 1      473    2.92%
      0     0     2263.3562    13     2199.2887 UserPurge2: 1      476    2.91%
      0     0     2262.6110    11     2199.2887 UserPurge2: 1      494    2.88%
      0     0     2261.7389    12     2199.2887 UserPurge2: 1      500    2.84%
      0     0     2261.0085    12     2199.2887 UserPurge2: 1      510    2.81%
      0     0     2260.8100    13     2199.2887 UserPurge2: 1      516    2.80%
      0     0     2259.6484    14     2199.2887 UserPurge2: 1      525    2.74%
      0     0     2258.8390    13     2199.2887 UserPurge2: 1      539    2.71%
      0     0     2258.2098    13     2199.2887 UserPurge2: 1      546    2.68%
      0     0     2257.5858    14     2199.2887 UserPurge2: 1      552    2.65%
      0     0     2257.1571    15     2199.2887 UserPurge2: 1      560    2.63%
      0     0     2255.9665    15     2199.2887 UserPurge2: 1      573    2.58%
      0     0     2255.3221    16     2199.2887 UserPurge2: 1      587    2.55%
      0     0     2254.8613    15     2199.2887 UserPurge2: 1      601    2.53%
      0     0     2254.5513    16     2199.2887 UserPurge2: 1      608    2.51%
      0     0     2253.2324    15     2199.2887 UserPurge2: 1      625    2.45%
      0     0     2252.6845    15     2199.2887 UserPurge2: 1      637    2.43%
      0     0     2252.2595    15     2199.2887 UserPurge2: 1      644    2.41%
      0     0     2251.9300    15     2199.2887 UserPurge2: 1      653    2.39%
      0     0     2250.9854    14     2199.2887 UserPurge2: 1      664    2.35%
      0     0     2250.8582    15     2199.2887 UserPurge2: 1      668    2.34%
      0     0     2250.4633    15     2199.2887 UserPurge2: 1      678    2.33%
      0     0     2249.7985    14     2199.2887 UserPurge2: 1      691    2.30%
      0     0     2249.5702    14     2199.2887 UserPurge2: 1      698    2.29%
      0     0     2248.9308    15     2199.2887 UserPurge2: 1      706    2.26%
      0     0     2248.8473    16     2199.2887 UserPurge2: 1      711    2.25%
      0     0     2248.5741    17     2199.2887 UserPurge2: 1      723    2.24%
      0     0     2248.0295    17     2199.2887 UserPurge2: 1      734    2.22%
      0     0     2247.8633    18     2199.2887 UserPurge2: 1      747    2.21%
      0     0     2247.7136    18     2199.2887 UserPurge2: 1      756    2.20%
      0     0     2247.3542    18     2199.2887 UserPurge2: 1      772    2.19%
      0     0     2246.6629    17     2199.2887 UserPurge2: 1      785    2.15%
      0     0     2246.2975    17     2199.2887 UserPurge2: 1      795    2.14%
      0     0     2245.6650    17     2199.2887 UserPurge2: 1      811    2.11%
      0     0     2244.8939    15     2199.2887 UserPurge2: 1      832    2.07%
      0     0     2244.8418    16     2199.2887 UserPurge2: 1      836    2.07%
      0     0     2244.6591    15     2199.2887 UserPurge2: 1      841    2.06%
      0     0     2244.5079    15     2199.2887 UserPurge2: 1      848    2.06%
      0     0     2244.4225    16     2199.2887 UserPurge2: 1      851    2.05%
      0     0     2243.9217    17     2199.2887 UserPurge2: 1      868    2.03%
      0     0     2243.3322    18     2199.2887 UserPurge2: 1      883    2.00%
      0     0     2243.1538    17     2199.2887 UserPurge2: 1      890    1.99%
      0     0     2243.0075    17     2199.2887 UserPurge2: 1      903    1.99%
      0     0     2242.7633    18     2199.2887 UserPurge2: 1      913    1.98%
      0     0     2242.4627    18     2199.2887 UserPurge2: 1      928    1.96%
      0     0     2242.1669    18     2199.2887 UserPurge2: 1      938    1.95%
      0     0     2241.9691    19     2199.2887 UserPurge2: 1      952    1.94%
*     0+    0                         2203.3235     2241.9691             1.75%
      0     0     2241.8118    19     2203.3235 UserPurge2: 1      961    1.75%
      0     0     2241.7051    20     2203.3235 UserPurge2: 1      969    1.74%
      0     0     2241.5260    20     2203.3235 UserPurge2: 1      984    1.73%
      0     0     2241.4030    20     2203.3235 UserPurge2: 1      997    1.73%
      0     0     2241.2247    21     2203.3235 UserPurge2: 1     1011    1.72%
      0     0     2240.9609    20     2203.3235 UserPurge2: 1     1029    1.71%
      0     0     2240.6212    19     2203.3235 UserPurge2: 1     1042    1.69%
      0     0     2240.4505    20     2203.3235 UserPurge2: 1     1050    1.69%
      0     0     2240.0538    19     2203.3235 UserPurge2: 1     1069    1.67%
      0     0     2239.9282    20     2203.3235 UserPurge2: 1     1080    1.66%
      0     0     2239.4012    21     2203.3235 UserPurge2: 1     1095    1.64%
      0     0     2238.8003    19     2203.3235 UserPurge2: 1     1119    1.61%
      0     0     2238.3107    18     2203.3235 UserPurge2: 1     1139    1.59%
*     0+    0                         2207.1956     2238.3107             1.41%
      0     0     2238.0545    19     2207.1956 UserPurge2: 1     1150    1.40%
      0     0     2237.9611    20     2207.1956 UserPurge2: 1     1162    1.39%
      0     0     2237.9040    21     2207.1956 UserPurge2: 1     1170    1.39%
      0     0     2237.8298    21     2207.1956 UserPurge2: 1     1177    1.39%
      0     0     2237.6500    21     2207.1956 UserPurge2: 1     1186    1.38%
      0     0     2237.5669    22     2207.1956 UserPurge2: 1     1198    1.38%
      0     0     2237.3690    22     2207.1956 UserPurge2: 1     1213    1.37%
      0     0     2237.2736    21     2207.1956 UserPurge2: 1     1221    1.36%
      0     0     2237.1849    22     2207.1956 UserPurge2: 1     1234    1.36%
      0     0     2237.1527    23     2207.1956 UserPurge2: 1     1242    1.36%
      0     0     2237.0486    23     2207.1956 UserPurge2: 1     1255    1.35%
      0     0     2236.9225    24     2207.1956 UserPurge2: 1     1267    1.35%
      0     0     2236.5793    22     2207.1956 UserPurge2: 1     1292    1.33%
      0     0     2236.2903    22     2207.1956 UserPurge2: 1     1315    1.32%
      0     2     2236.2903    22     2207.1956     2236.2883     1315    1.32%
Elapsed time = 30.58 sec. (359.20 ticks, tree = 0.01 MB, solutions = 4)
      1     3     2220.5751    41     2207.1956     2236.2881    31356    1.32%
      2     4     2215.5074    20     2207.1956     2220.5751    32665    0.61%
*     3     3      integral     0     2211.5075     2220.5751    32747    0.41%
*     4     2      integral     0     2211.9668     2220.5751    33527    0.39%
      4     2     2211.9668     0     2211.9668     2220.5751    33527    0.39%
*     5     1      integral     0     2220.3333     2220.5748    33843    0.01%
      6     0        cutoff           2220.3333     2220.3333    36287    0.00%

User cuts applied:  3576

Root node processing (before b&c):
  Real time             =   30.58 sec. (364.34 ticks)
Sequential b&c:
  Real time             =  164.22 sec. (37453.83 ticks)
                          ------------
Total (root+branch&cut) =  194.80 sec. (37818.17 ticks)
@Parameters: 
is_S_cut                                true
is_add_all_yinF                         true
is_start_value                          true
is_usercut                              true
is_visualization                        false
uc_only_rootnode                        false

data                                    Qi
fn                                      data/Qi/instance_1000_500.csv
mode                                    NewSubmodular
solver                                  cplex

p                                       5
r                                       10

EPS                                     1.0e-06
EPS_vio                                 1.0e-04
beta                                    0.10
gap                                     0.00
nodelimit                               Inf
timelimit                               7200.00


@PrintInfos
ItCnt: 36287
Current gap: 0.00 %
Termination Status: OPTIMAL
Primal Status: FEASIBLE_POINT
Solve Time: 194.80 sec
Objective Value: 2220.333286
Number of Nodes:      7

CutInfo: [phase] num / time (sec) 
ZLP             [phase1]     0 / 0.00 [rLC]     0 / 0.00 [rUC]     0 / 0.00 [sLC]     0 / 0.00 [sUC]     0 / 0.00 
OldSubmodular   [phase1]     0 / 0.00 [rLC]     0 / 0.00 [rUC]     0 / 0.00 [sLC]     0 / 0.00 [sUC]     0 / 0.00 
NewSubmodular   [phase1]     0 / 0.00 [rLC]   162 / 18.15 [rUC]   315 / 10.02 [sLC]     2 / 9.03 [sUC]  3542 / 120.48 
PMP             [phase1]     0 / 0.00 [rLC]     9 / 13.53 [rUC]     0 / 0.00 [sLC]     5 / 8.94 [sUC]     1 / 1.96 
Separation Round: [phase1] 0  [rLC] 80  [rUC] 117  [sLC] 5  [sUC] 954
Root Best Bound 2220.575074
Root Best Integer: 2207.195626
Best Bound: 2220.333286
Best Integer: 2220.333286

